p cep 330 573
1 2
1 3
1 4
1 5
1 6
1 28
1 29
1 30
1 31
1 32
1 33
1 34
1 35
1 36
1 37
1 38
1 39
1 40
1 41
1 42
2 3
2 4
2 5
2 6
2 7
2 26
2 27
2 28
2 29
2 30
2 31
2 32
2 33
2 34
2 35
2 36
2 37
2 38
2 39
2 40
2 41
2 42
2 43
3 4
3 5
3 6
3 7
3 8
3 32
3 33
3 34
3 35
3 36
3 37
3 38
3 39
3 40
3 41
3 42
4 5
4 6
4 7
4 8
4 9
4 33
4 34
4 35
4 36
4 37
4 38
4 39
4 40
4 41
4 42
5 6
5 7
5 8
5 9
5 34
5 35
5 36
5 37
5 38
5 39
5 40
5 41
5 42
6 7
6 8
6 9
6 10
6 36
6 37
6 38
6 39
6 40
6 41
6 42
7 8
7 9
7 10
7 38
7 39
7 40
7 41
7 42
8 9
8 10
8 40
8 41
8 42
9 10
12 13
12 14
13 14
13 15
14 15
17 18
17 19
17 20
17 21
18 19
18 20
18 21
18 22
18 23
19 20
19 21
19 22
19 23
19 24
19 25
20 21
20 22
20 23
20 24
20 25
20 26
21 22
21 23
21 24
21 25
21 26
21 27
22 23
22 24
22 25
22 26
22 27
22 28
23 24
23 25
23 26
23 27
23 28
24 25
24 26
24 27
24 28
24 29
24 30
25 26
25 27
25 28
25 29
25 30
25 31
26 27
26 28
26 29
26 30
26 31
26 32
27 28
27 29
27 30
27 31
27 32
27 33
27 34
28 29
28 30
28 31
28 32
28 33
28 34
28 35
28 36
29 30
29 31
29 32
29 33
29 34
29 35
29 36
29 37
29 38
30 31
30 32
30 33
30 34
30 35
30 36
30 37
30 38
30 39
31 32
31 33
31 34
31 35
31 36
31 37
31 38
31 39
31 40
31 41
31 42
32 33
32 34
32 35
32 36
32 37
32 38
32 39
32 40
32 41
32 42
33 34
33 35
33 36
33 37
33 38
33 39
33 40
33 41
33 42
34 35
34 36
34 37
34 38
34 39
34 40
34 41
34 42
35 36
35 37
35 38
35 39
35 40
35 41
35 42
36 37
36 38
36 39
36 40
36 41
36 42
37 38
37 39
37 40
37 41
37 42
38 39
38 40
38 41
38 42
39 40
39 41
39 42
40 41
40 42
41 42
43 84
44 45
44 46
44 82
44 83
45 46
45 47
45 83
46 47
46 48
47 48
48 49
51 92
54 55
54 95
55 56
55 96
56 97
58 99
61 62
61 63
62 63
62 64
63 64
65 66
65 67
65 68
66 67
66 68
66 69
67 68
67 69
67 70
68 69
68 70
69 70
69 71
70 71
71 72
71 74
72 73
74 75
74 76
74 77
75 76
75 77
76 77
77 78
78 79
78 80
79 80
79 81
80 81
80 82
81 82
81 83
82 83
84 125
85 86
85 123
85 124
86 124
87 88
88 89
93 94
94 95
95 96
96 97
101 142
102 103
102 104
103 104
103 105
104 105
104 106
105 106
105 146
106 147
107 108
107 109
108 109
108 110
109 110
109 111
110 111
111 112
112 113
113 114
114 115
115 116
115 117
116 117
116 118
117 118
119 120
120 121
121 122
121 162
122 123
122 163
123 124
125 166
126 127
126 165
127 128
131 132
131 172
132 133
134 135
135 136
136 137
137 138
138 139
141 182
142 143
143 144
143 184
144 145
144 185
145 186
146 147
147 148
147 188
148 149
148 189
149 150
149 190
150 151
150 191
151 152
151 192
152 153
152 193
153 154
153 194
154 155
156 157
157 158
157 159
158 159
160 161
160 201
161 162
162 163
164 165
167 206
173 174
175 176
176 177
177 178
178 179
179 180
184 185
185 186
186 187
188 189
189 190
190 191
191 192
192 193
193 194
195 196
197 198
198 199
199 200
200 201
202 203
205 206
208 247
213 214
215 216
216 217
216 218
217 218
217 219
218 219
218 220
219 220
220 221
224 225
225 226
226 227
228 229
229 230
231 232
233 234
234 235
235 236
239 240
240 241
241 242
243 244
244 245
245 246
248 289
249 250
249 288
254 255
255 256
257 258
257 259
257 260
258 259
258 260
258 261
259 260
259 261
260 261
260 262
261 262
263 264
265 266
266 268
269 270
269 271
270 271
270 272
271 272
271 273
272 273
272 274
273 274
274 275
275 276
277 278
279 280
280 281
281 282
281 283
282 283
282 284
283 284
284 285
285 286
286 287
287 288
289 303
289 330
290 291
290 328
290 329
291 292
292 293
293 294
294 295
294 296
295 296
297 298
297 299
297 300
297 301
297 302
297 303
298 299
298 300
298 301
298 302
298 303
299 300
299 301
299 302
299 303
300 301
300 302
300 303
301 302
301 303
302 303
304 305
304 306
305 306
306 310
307 308
307 309
308 309
309 310
310 311
310 312
310 313
311 312
311 313
311 314
312 313
312 314
312 315
313 314
313 315
314 315
315 316
316 317
316 318
317 318
321 322
321 323
322 323
324 325
326 327
326 328
327 328
327 329
328 329
